(set-logic ALL_SUPPORTED)
(declare-fun v!23 () (_ BitVec 32))
(declare-fun t!19 () Real)
(declare-fun t!18 () Real)
(declare-fun t!20 () Real)
(declare-fun t!21 () Real)
(declare-fun t!15 () Real)
(declare-fun t!14 () Real)
(declare-fun t!16 () Real)
(declare-fun t!17 () Real)
(declare-fun t!11 () Real)
(declare-fun t!10 () Real)
(declare-fun t!12 () Real)
(declare-fun t!13 () Real)
(declare-fun t!7 () Real)
(declare-fun t!6 () Real)
(declare-fun t!8 () Real)
(declare-fun t!9 () Real)
(declare-fun t!3 () Real)
(declare-fun t!2 () Real)
(declare-fun t!4 () Real)
(declare-fun t!5 () Real)
(declare-fun t!1 () Real)
(declare-fun t!0 () Real)
(declare-fun t!22 () Real)
(declare-fun s!22 () Real)
(declare-fun s!3 () Real)
(declare-fun s!7 () Real)
(declare-fun s!11 () Real)
(declare-fun s!15 () Real)
(declare-fun s!19 () Real)
(declare-fun rf!22 () Real)
(declare-fun v!4 () (_ BitVec 32))
(declare-fun rf!3 () Real)
(declare-fun v!8 () (_ BitVec 32))
(declare-fun v!12 () (_ BitVec 32))
(declare-fun v!16 () (_ BitVec 32))
(declare-fun v!20 () (_ BitVec 32))
(declare-fun rf!7 () Real)
(declare-fun rf!11 () Real)
(declare-fun rf!15 () Real)
(declare-fun rf!19 () Real)
(assert (and true (bvslt (_ bv4 32) v!23)))
(assert (< 0 t!19))
(assert (< 0 t!18))
(assert (< 0 t!20))
(assert (< 0 t!21))
(assert (< 0 t!15))
(assert (< 0 t!14))
(assert (< 0 t!16))
(assert (< 0 t!17))
(assert (< 0 t!11))
(assert (< 0 t!10))
(assert (< 0 t!12))
(assert (< 0 t!13))
(assert (< 0 t!7))
(assert (< 0 t!6))
(assert (< 0 t!8))
(assert (< 0 t!9))
(assert (< 0 t!3))
(assert (< 0 t!2))
(assert (< 0 t!4))
(assert (< 0 t!5))
(assert (< 0 t!1))
(assert (< 0 t!0))
(assert (< 0 t!22))
(assert (and (and (and (and (and (and (and (and (and (and (and (and (and (and (and (and (and (and (and (and (and (and true (< t!18 t!19)) (< t!19 t!20)) (< t!20 t!21)) (< t!14 t!15)) (< t!15 t!16)) (< t!16 t!17)) (< t!10 t!11)) (< t!11 t!12)) (< t!12 t!13)) (< t!6 t!7)) (< t!7 t!8)) (< t!8 t!9)) (< t!2 t!3)) (< t!3 t!4)) (< t!4 t!5)) (< t!0 t!1)) (< t!1 t!2)) (< t!2 t!6)) (< t!6 t!10)) (< t!10 t!14)) (< t!14 t!18)) (< t!18 t!22)))
(assert (< 0 s!22))
(assert (< 0 s!3))
(assert (< 0 s!7))
(assert (< 0 s!11))
(assert (< 0 s!15))
(assert (< 0 s!19))
(assert (let ((_let_0 (= 1 rf!22))) (let ((_let_1 (and true true))) (let ((_let_2 (<= t!1 t!22))) (let ((_let_3 (= 4 rf!22))) (let ((_let_4 (<= t!4 t!22))) (let ((_let_5 (= 0 rf!3))) (let ((_let_6 (<= t!0 t!3))) (let ((_let_7 (= 8 rf!3))) (let ((_let_8 (<= t!8 t!3))) (let ((_let_9 (bvadd v!8 (_ bv1 32)))) (let ((_let_10 (= 12 rf!3))) (let ((_let_11 (<= t!12 t!3))) (let ((_let_12 (bvadd v!12 (_ bv1 32)))) (let ((_let_13 (= 16 rf!3))) (let ((_let_14 (<= t!16 t!3))) (let ((_let_15 (bvadd v!16 (_ bv1 32)))) (let ((_let_16 (= 20 rf!3))) (let ((_let_17 (<= t!20 t!3))) (let ((_let_18 (bvadd v!20 (_ bv1 32)))) (let ((_let_19 (= 0 rf!7))) (let ((_let_20 (<= t!0 t!7))) (let ((_let_21 (= 8 rf!7))) (let ((_let_22 (<= t!8 t!7))) (let ((_let_23 (= 12 rf!7))) (let ((_let_24 (<= t!12 t!7))) (let ((_let_25 (= 16 rf!7))) (let ((_let_26 (<= t!16 t!7))) (let ((_let_27 (= 20 rf!7))) (let ((_let_28 (<= t!20 t!7))) (let ((_let_29 (= 0 rf!11))) (let ((_let_30 (<= t!0 t!11))) (let ((_let_31 (= 8 rf!11))) (let ((_let_32 (<= t!8 t!11))) (let ((_let_33 (= 12 rf!11))) (let ((_let_34 (<= t!12 t!11))) (let ((_let_35 (= 16 rf!11))) (let ((_let_36 (<= t!16 t!11))) (let ((_let_37 (= 20 rf!11))) (let ((_let_38 (<= t!20 t!11))) (let ((_let_39 (= 0 rf!15))) (let ((_let_40 (<= t!0 t!15))) (let ((_let_41 (= 8 rf!15))) (let ((_let_42 (<= t!8 t!15))) (let ((_let_43 (= 12 rf!15))) (let ((_let_44 (<= t!12 t!15))) (let ((_let_45 (= 16 rf!15))) (let ((_let_46 (<= t!16 t!15))) (let ((_let_47 (= 20 rf!15))) (let ((_let_48 (<= t!20 t!15))) (let ((_let_49 (= 0 rf!19))) (let ((_let_50 (<= t!0 t!19))) (let ((_let_51 (= 8 rf!19))) (let ((_let_52 (<= t!8 t!19))) (let ((_let_53 (= 12 rf!19))) (let ((_let_54 (<= t!12 t!19))) (let ((_let_55 (= 16 rf!19))) (let ((_let_56 (<= t!16 t!19))) (let ((_let_57 (= 20 rf!19))) (let ((_let_58 (<= t!20 t!19))) (and (and (and (and (and (and (and (and (and (and (and (and (and (and (and (and (and (and (and (and (and (and (and (and (and (and (and (and (and (and (and (and (and (and (and (and (and (and (and (and (and (and (and (and (and (and (and (and (and (and (and (and (and (and (and (and (and (and (and (and true (=> _let_0 (and (and (and _let_1 _let_2) (= (_ bv0 32) v!23)) (= s!22 t!1)))) (=> (and _let_2 true) (<= t!1 s!22))) (=> _let_3 (and (and (and _let_1 _let_4) (= v!4 v!23)) (= s!22 t!4)))) (=> (and _let_4 true) (<= t!4 s!22))) (=> true (or _let_3 (or _let_0 false)))) (=> _let_5 (and (and (and _let_1 _let_6) (= (_ bv0 32) v!4)) (= s!3 t!0)))) (=> (and _let_6 true) (<= t!0 s!3))) (=> _let_7 (and (and (and _let_1 _let_8) (= _let_9 v!4)) (= s!3 t!8)))) (=> (and _let_8 true) (<= t!8 s!3))) (=> _let_10 (and (and (and _let_1 _let_11) (= _let_12 v!4)) (= s!3 t!12)))) (=> (and _let_11 true) (<= t!12 s!3))) (=> _let_13 (and (and (and _let_1 _let_14) (= _let_15 v!4)) (= s!3 t!16)))) (=> (and _let_14 true) (<= t!16 s!3))) (=> _let_16 (and (and (and _let_1 _let_17) (= _let_18 v!4)) (= s!3 t!20)))) (=> (and _let_17 true) (<= t!20 s!3))) (=> true (or _let_16 (or _let_13 (or _let_10 (or _let_7 (or _let_5 false))))))) (=> _let_19 (and (and (and _let_1 _let_20) (= (_ bv0 32) v!8)) (= s!7 t!0)))) (=> (and _let_20 true) (<= t!0 s!7))) (=> _let_21 (and (and (and _let_1 _let_22) (= _let_9 v!8)) (= s!7 t!8)))) (=> (and _let_22 true) (<= t!8 s!7))) (=> _let_23 (and (and (and _let_1 _let_24) (= _let_12 v!8)) (= s!7 t!12)))) (=> (and _let_24 true) (<= t!12 s!7))) (=> _let_25 (and (and (and _let_1 _let_26) (= _let_15 v!8)) (= s!7 t!16)))) (=> (and _let_26 true) (<= t!16 s!7))) (=> _let_27 (and (and (and _let_1 _let_28) (= _let_18 v!8)) (= s!7 t!20)))) (=> (and _let_28 true) (<= t!20 s!7))) (=> true (or _let_27 (or _let_25 (or _let_23 (or _let_21 (or _let_19 false))))))) (=> _let_29 (and (and (and _let_1 _let_30) (= (_ bv0 32) v!12)) (= s!11 t!0)))) (=> (and _let_30 true) (<= t!0 s!11))) (=> _let_31 (and (and (and _let_1 _let_32) (= _let_9 v!12)) (= s!11 t!8)))) (=> (and _let_32 true) (<= t!8 s!11))) (=> _let_33 (and (and (and _let_1 _let_34) (= _let_12 v!12)) (= s!11 t!12)))) (=> (and _let_34 true) (<= t!12 s!11))) (=> _let_35 (and (and (and _let_1 _let_36) (= _let_15 v!12)) (= s!11 t!16)))) (=> (and _let_36 true) (<= t!16 s!11))) (=> _let_37 (and (and (and _let_1 _let_38) (= _let_18 v!12)) (= s!11 t!20)))) (=> (and _let_38 true) (<= t!20 s!11))) (=> true (or _let_37 (or _let_35 (or _let_33 (or _let_31 (or _let_29 false))))))) (=> _let_39 (and (and (and _let_1 _let_40) (= (_ bv0 32) v!16)) (= s!15 t!0)))) (=> (and _let_40 true) (<= t!0 s!15))) (=> _let_41 (and (and (and _let_1 _let_42) (= _let_9 v!16)) (= s!15 t!8)))) (=> (and _let_42 true) (<= t!8 s!15))) (=> _let_43 (and (and (and _let_1 _let_44) (= _let_12 v!16)) (= s!15 t!12)))) (=> (and _let_44 true) (<= t!12 s!15))) (=> _let_45 (and (and (and _let_1 _let_46) (= _let_15 v!16)) (= s!15 t!16)))) (=> (and _let_46 true) (<= t!16 s!15))) (=> _let_47 (and (and (and _let_1 _let_48) (= _let_18 v!16)) (= s!15 t!20)))) (=> (and _let_48 true) (<= t!20 s!15))) (=> true (or _let_47 (or _let_45 (or _let_43 (or _let_41 (or _let_39 false))))))) (=> _let_49 (and (and (and _let_1 _let_50) (= (_ bv0 32) v!20)) (= s!19 t!0)))) (=> (and _let_50 true) (<= t!0 s!19))) (=> _let_51 (and (and (and _let_1 _let_52) (= _let_9 v!20)) (= s!19 t!8)))) (=> (and _let_52 true) (<= t!8 s!19))) (=> _let_53 (and (and (and _let_1 _let_54) (= _let_12 v!20)) (= s!19 t!12)))) (=> (and _let_54 true) (<= t!12 s!19))) (=> _let_55 (and (and (and _let_1 _let_56) (= _let_15 v!20)) (= s!19 t!16)))) (=> (and _let_56 true) (<= t!16 s!19))) (=> _let_57 (and (and (and _let_1 _let_58) (= _let_18 v!20)) (= s!19 t!20)))) (=> (and _let_58 true) (<= t!20 s!19))) (=> true (or _let_57 (or _let_55 (or _let_53 (or _let_51 (or _let_49 false)))))))))))))))))))))))))))))))))))))))))))))))))))))))))))))))))))
(assert (and (and true (distinct t!1 t!4)) (distinct t!0 t!8 t!12 t!16 t!20)))
(check-sat)
